data/solutions/recovery/degenerate/moderate/flexible/degenerate_moderate_instance6/50.sol
Elapsed time: 0.05
Upper bound: 10528741.0
Planning weighted value: 63933666.0
C[0]=10528741.0
C[1]=10502987.0
C[2]=10487127.0
y[0]=2
y[1]=2
y[2]=2
y[3]=1
y[4]=0
y[5]=2
y[6]=2
y[7]=1
y[8]=2
y[9]=2
y[10]=0
y[11]=1
y[12]=2
y[13]=1
y[14]=1
y[15]=1
y[16]=0
y[17]=1
y[18]=0
y[19]=0
y[20]=0
y[21]=1
y[22]=0
y[23]=2
y[24]=0
y[25]=1
